110011111000010100010111000000101001110101010101010010011011001101000101010100100000000001010000000011110011100001101011001011010011000011000011100110001111000001111011110111111000011110101101001100001001001110101101101010010000001011101001100011001001010101011110110110110000010001001011111011001111111011111111010001101101011110101000111111000001011011011011100100100010001100101110001011101000011000010111111100101000000111101100101001000101101111001010001110000001101010011011010100100010101000100111000100111010010001000110001011110001010111100101111111011111110101101110101010101101001000010110001110011100001001011110011000011000001001001111000111000110010011010001001000101101001101010101111010101011100111101101110110101111001100001010000010011011010100010011110011000110011010000001100000001110010110011010100010000100010110101101100111111011001110100100000100111100110010101010001111100100100001100110111101100000000101010001001100010101110110001000